c Mesh Graph
c 3 Rows, 3 columns, capacities in range [0, 100]
p max 11 24
n 1 s
n 11 t
a 1 4 300
a 1 3 300
a 1 2 300
a 2 6 89
a 2 5 17
a 2 7 38
a 3 7 37
a 3 6 26
a 3 5 17
a 4 5 5
a 4 7 52
a 4 6 1
a 5 9 55
a 5 8 65
a 5 10 85
a 6 10 55
a 6 9 19
a 6 8 95
a 7 8 70
a 7 10 49
a 7 9 91
a 8 11 300
a 9 11 300
a 10 11 300
